# Solution for model hydro
# Objective value = 1156.25
bid_price_0_0 0
bid_price_0_1 0
bid_price_1_0 0
bid_price_1_1 0
bid_price_2_0 0
bid_price_2_1 0
bid_price_3_0 0
bid_price_3_1 0
production_quantity_0_0 20
production_quantity_0_1 20
production_quantity_0_2 0
production_quantity_1_0 20
production_quantity_1_1 45
production_quantity_1_2 0
production_quantity_2_0 20
production_quantity_2_1 45
production_quantity_2_2 0
production_quantity_3_0 20
production_quantity_3_1 45
production_quantity_3_2 15
b_v_0_0 40
b_v_0_1 0
b_v_1_0 40
b_v_1_1 25
b_v_2_0 40
b_v_2_1 25
b_v_3_0 40
b_v_3_1 40
delta_b_0_0_0 0
delta_b_0_0_1 0
delta_b_0_0_2 0
delta_b_0_0_3 1
delta_b_0_1_0 1
delta_b_0_1_1 0
delta_b_0_1_2 0
delta_b_0_1_3 0
delta_b_1_0_0 0
delta_b_1_0_1 0
delta_b_1_0_2 0
delta_b_1_0_3 1
delta_b_1_1_0 0
delta_b_1_1_1 0
delta_b_1_1_2 1
delta_b_1_1_3 0
delta_b_2_0_0 0
delta_b_2_0_1 0
delta_b_2_0_2 0
delta_b_2_0_3 1
delta_b_2_1_0 0
delta_b_2_1_1 0
delta_b_2_1_2 1
delta_b_2_1_3 0
delta_b_3_0_0 0
delta_b_3_0_1 0
delta_b_3_0_2 0
delta_b_3_0_3 1
delta_b_3_1_0 0
delta_b_3_1_1 0
delta_b_3_1_2 0
delta_b_3_1_3 1
p_c_0_0_0 48
p_c_0_0_1 48
p_c_0_1_0 35
p_c_0_1_1 35
p_c_1_0_0 48
p_c_1_0_1 48
p_c_1_1_0 40
p_c_1_1_1 40
p_c_2_0_0 48
p_c_2_0_1 48
p_c_2_1_0 45
p_c_2_1_1 45
p_c_3_0_0 48
p_c_3_0_1 48
p_c_3_1_0 50
p_c_3_1_1 50
v_c_0_0_0 40
v_c_0_0_1 0
v_c_0_1_0 0
v_c_0_1_1 0
v_c_1_0_0 40
v_c_1_0_1 0
v_c_1_1_0 0
v_c_1_1_1 25
v_c_2_0_0 40
v_c_2_0_1 0
v_c_2_1_0 0
v_c_2_1_1 25
v_c_3_0_0 40
v_c_3_0_1 0
v_c_3_1_0 0
v_c_3_1_1 40
pi_c_0_0_0 1920
pi_c_0_0_1 0
pi_c_0_1_0 0
pi_c_0_1_1 0
pi_c_1_0_0 1920
pi_c_1_0_1 0
pi_c_1_1_0 0
pi_c_1_1_1 1000
pi_c_2_0_0 1920
pi_c_2_0_1 0
pi_c_2_1_0 0
pi_c_2_1_1 1125
pi_c_3_0_0 1920
pi_c_3_0_1 0
pi_c_3_1_0 0
pi_c_3_1_1 2000
